n_machines = 3;
n_resources = 5;
n_jobs = 50;
horizon = 23370;
LB = 7790;
n_jobs_per_resource = [10, 10, 10, 10, 10];
duration = [394, 872, 32, 698, 543, 911, 638, 435, 383, 232, 457, 896, 928, 474, 235, 349, 725, 319, 652, 53, 459, 922, 82, 260, 777, 78, 685, 56, 59, 638, 733, 194, 336, 425, 644, 15, 667, 118, 394, 499, 143, 441, 464, 737, 147, 319, 932, 656, 477, 787]